N = 65;
F = 2;
MaxItemsPerDay = 20;
MaxDay = 50;
name = ["i1", "i2", "i3", "i4", "i5", "i6", "i7", "i8", "i9", "i10", "i11", "i12", "i13", "i14", "i15", "i16", "i17", "i18", "i19", "i20", "i21", "i22", "i23", "i24", "i25", "i26", "i27", "i28", "i29", "i30", "i31", "i32", "i33", "i34", "i35", "i36", "i37", "i38", "i39", "i40", "i41", "i42", "i43", "i44", "i45", "i46", "i47", "i48", "i49", "i50", "i51", "i52", "i53", "i54", "i55", "i56", "i57", "i58", "i59", "i60", "i61", "i62", "i63", "i64", "i65"];
kind = [4, 6, 6, 10, 8, 6, 2, 3, 4, 1, 6, 1, 4, 1, 10, 10, 4, 8, 5, 7, 9, 7, 8, 9, 6, 8, 10, 3, 6, 6, 9, 8, 2, 1, 8, 7, 7, 10, 3, 5, 4, 9, 1, 6, 4, 3, 1, 8, 9, 1, 6, 4, 1, 7, 5, 8, 3, 7, 8, 5, 4, 10, 1, 8, 8];
facility = [
  { 1 },
  { 2 },
  { 1 },
  { 1, 2 },
  { 1, 2 },
  { 1, 2 },
  { 2 },
  { 1 },
  { 1 },
  { 1 },
  { 2 },
  { 1, 2 },
  { 1, 2 },
  { 1 },
  { 1 },
  { 2 },
  { 2 },
  { 2 },
  { 2 },
  { 2 },
  { 1 },
  { 1 },
  { 1, 2 },
  { 1, 2 },
  { 1, 2 },
  { 1 },
  { 2 },
  { 2 },
  { 1 },
  { 2 },
  { 2 },
  { 1, 2 },
  { 1, 2 },
  { 1, 2 },
  { 1, 2 },
  { 2 },
  { 1 },
  { 2 },
  { 1, 2 },
  { 2 },
  { 1 },
  { 2 },
  { 1, 2 },
  { 2 },
  { 1, 2 },
  { 1, 2 },
  { 1, 2 },
  { 1 },
  { 1, 2 },
  { 1, 2 },
  { 1 },
  { 1 },
  { 1, 2 },
  { 1, 2 },
  { 2 },
  { 2 },
  { 2 },
  { 1 },
  { 1 },
  { 2 },
  { 2 },
  { 2 },
  { 1, 2 },
  { 1, 2 },
  { 1, 2 }
];
producedDay = [22, 25, 25, 25, 25, 25, 4, 25, 25, 25, 16, 1, 15, 25, 6, 25, 19, 25, 19, 25, 25, 12, 16, 25, 25, 5, 25, 17, 25, 25, 25, 25, 1, 9, 2, 25, 25, 25, 25, 22, 25, 21, 25, 25, 25, 11, 8, 25, 25, 25, 25, 25, 25, 4, 25, 17, 25, 25, 25, 13, 9, 25, 25, 25, 25];
deadLineDay = [50, 50, 48, 37, 43, 28, 38, 50, 36, 50, 27, 27, 17, 42, 48, 50, 50, 38, 50, 50, 50, 50, 45, 31, 50, 50, 36, 50, 39, 30, 50, 29, 17, 23, 43, 50, 37, 50, 26, 42, 43, 50, 40, 48, 48, 50, 31, 50, 50, 26, 50, 50, 50, 27, 50, 29, 50, 38, 50, 42, 30, 38, 50, 44, 50];
